
******************************************************************************
This program contains Ipopt, a library for large-scale nonlinear optimization.
 Ipopt is released as open source code under the Eclipse Public License (EPL).
         For more information visit https://github.com/coin-or/Ipopt
******************************************************************************

This is Ipopt version 3.13.4, running with linear solver mumps.
NOTE: Other linear solvers might be more efficient (see Ipopt documentation).

Number of nonzeros in equality constraint Jacobian...:     1020
Number of nonzeros in inequality constraint Jacobian.:        0
Number of nonzeros in Lagrangian Hessian.............:        0

Total number of variables............................:       60
                     variables with only lower bounds:        0
                variables with lower and upper bounds:       54
                     variables with only upper bounds:        0
Total number of equality constraints.................:       17
Total number of inequality constraints...............:        0
        inequality constraints with only lower bounds:        0
   inequality constraints with lower and upper bounds:        0
        inequality constraints with only upper bounds:        0

iter    objective    inf_pr   inf_du lg(mu)  ||d||  lg(rg) alpha_du alpha_pr  ls
   0  1.0000000e+00 5.00e-02 0.00e+00   0.0 0.00e+00    -  0.00e+00 0.00e+00   0
   1  1.0000000e+00 1.18e-01 5.70e+02  -5.5 3.59e-01    -  9.14e-01 4.30e-01h  1
   2  1.0000000e+00 9.70e-02 1.06e+04  -1.1 8.43e-01    -  1.00e+00 4.76e-01f  1
   3  1.0000000e+00 3.88e-02 2.81e+03  -1.6 3.69e-01    -  1.00e+00 1.00e+00h  1
   4  1.0000000e+00 4.65e-03 1.12e+04  -1.3 2.57e-01    -  1.00e+00 9.00e-01h  1
